NAME sexual reproduction_srl_ilp
* Max problem is converted into Min one
ROWS
 N  OBJ
 L  constraint1_6591
 L  constraint1_6590
 L  constraint1_3180
 L  constraint1_5950
 L  constraint1_4200
 L  constraint1_2000
 L  constraint1_5070
 L  constraint2_6590
 L  constraint2_6591
 L  constraint2_6592
 L  constraint2_6593
 L  constraint2_3180
 L  constraint2_3181
 L  constraint2_3182
 L  constraint2_3183
 L  constraint2_5950
 L  constraint2_5951
 L  constraint2_5952
 L  constraint2_5953
 L  constraint2_4200
 L  constraint2_4201
 L  constraint2_4202
 L  constraint2_4203
 L  constraint2_2000
 L  constraint2_2001
 L  constraint2_2002
 L  constraint2_2003
 L  constraint2_5070
 L  constraint2_5071
 L  constraint2_5072
 L  constraint2_5073
COLUMNS
    MARKER    'MARKER'                 'INTORG'
    Z_659_1_0  OBJ       -3.9988935678218485e-03
    Z_659_1_0  constraint1_6591  1
    Z_659_1_0  constraint2_6590  1
    Z_659_1_1  OBJ       -5.7227513883935212e-03
    Z_659_1_1  constraint1_6591  1
    Z_659_1_1  constraint2_6591  1
    Z_659_1_2  OBJ       -7.8884226821078118e-01
    Z_659_1_2  constraint1_6591  1
    Z_659_1_2  constraint2_6592  1
    Z_659_1_3  OBJ       -9.0231839327701933e-03
    Z_659_1_3  constraint1_6591  1
    Z_659_1_3  constraint2_6593  1
    Z_659_0_0  OBJ       -1.2104355692384015e-01
    Z_659_0_0  constraint1_6590  1
    Z_659_0_0  constraint2_6590  1
    Z_659_0_1  OBJ       -6.3454137982850087e-02
    Z_659_0_1  constraint1_6590  1
    Z_659_0_1  constraint2_6591  1
    Z_659_0_2  OBJ       -7.0342767924464714e-02
    Z_659_0_2  constraint1_6590  1
    Z_659_0_2  constraint2_6592  1
    Z_659_0_3  OBJ       -6.9838248074244921e-02
    Z_659_0_3  constraint1_6590  1
    Z_659_0_3  constraint2_6593  1
    Z_318_0_0  OBJ       -5.4731321405917523e-04
    Z_318_0_0  constraint1_3180  1
    Z_318_0_0  constraint2_3180  1
    Z_318_0_1  OBJ       -7.6872481985812272e-02
    Z_318_0_1  constraint1_3180  1
    Z_318_0_1  constraint2_3181  1
    Z_318_0_2  OBJ       -2.6450659253113906e-01
    Z_318_0_2  constraint1_3180  1
    Z_318_0_2  constraint2_3182  1
    Z_318_0_3  OBJ       -1.1807013021197021e-02
    Z_318_0_3  constraint1_3180  1
    Z_318_0_3  constraint2_3183  1
    Z_595_0_0  OBJ       -3.9954493520227841e-04
    Z_595_0_0  constraint1_5950  1
    Z_595_0_0  constraint2_5950  1
    Z_595_0_1  OBJ       -4.7044871915876439e-02
    Z_595_0_1  constraint1_5950  1
    Z_595_0_1  constraint2_5951  1
    Z_595_0_2  OBJ       -5.5281802756195775e-01
    Z_595_0_2  constraint1_5950  1
    Z_595_0_2  constraint2_5952  1
    Z_595_0_3  OBJ       -7.3959963136799034e-03
    Z_595_0_3  constraint1_5950  1
    Z_595_0_3  constraint2_5953  1
    Z_420_0_0  OBJ       -3.4457457511244106e-02
    Z_420_0_0  constraint1_4200  1
    Z_420_0_0  constraint2_4200  1
    Z_420_0_1  OBJ       -8.0101998508761360e-02
    Z_420_0_1  constraint1_4200  1
    Z_420_0_1  constraint2_4201  1
    Z_420_0_2  OBJ       -1.1738521770019451e-02
    Z_420_0_2  constraint1_4200  1
    Z_420_0_2  constraint2_4202  1
    Z_420_0_3  OBJ       -6.7589724366962523e-01
    Z_420_0_3  constraint1_4200  1
    Z_420_0_3  constraint2_4203  1
    Z_200_0_0  OBJ       -1.7706562480869471e-02
    Z_200_0_0  constraint1_2000  1
    Z_200_0_0  constraint2_2000  1
    Z_200_0_1  OBJ       -8.4526356761244342e-02
    Z_200_0_1  constraint1_2000  1
    Z_200_0_1  constraint2_2001  1
    Z_200_0_2  OBJ       -3.3703472144031982e-01
    Z_200_0_2  constraint1_2000  1
    Z_200_0_2  constraint2_2002  1
    Z_200_0_3  OBJ       -4.3870198044873958e-02
    Z_200_0_3  constraint1_2000  1
    Z_200_0_3  constraint2_2003  1
    Z_507_0_0  OBJ       -4.0835862219291698e-04
    Z_507_0_0  constraint1_5070  1
    Z_507_0_0  constraint2_5070  1
    Z_507_0_1  OBJ       -2.7022209540041985e-02
    Z_507_0_1  constraint1_5070  1
    Z_507_0_1  constraint2_5071  1
    Z_507_0_2  OBJ       -4.6425359673825189e-01
    Z_507_0_2  constraint1_5070  1
    Z_507_0_2  constraint2_5072  1
    Z_507_0_3  OBJ       -1.5864432021093763e-02
    Z_507_0_3  constraint1_5070  1
    Z_507_0_3  constraint2_5073  1
    MARKER    'MARKER'                 'INTEND'
RHS
    RHS1      constraint1_6591  1
    RHS1      constraint1_6590  1
    RHS1      constraint1_3180  1
    RHS1      constraint1_5950  1
    RHS1      constraint1_4200  1
    RHS1      constraint1_2000  1
    RHS1      constraint1_5070  1
    RHS1      constraint2_6590  1
    RHS1      constraint2_6591  1
    RHS1      constraint2_6592  1
    RHS1      constraint2_6593  1
    RHS1      constraint2_3180  1
    RHS1      constraint2_3181  1
    RHS1      constraint2_3182  1
    RHS1      constraint2_3183  1
    RHS1      constraint2_5950  1
    RHS1      constraint2_5951  1
    RHS1      constraint2_5952  1
    RHS1      constraint2_5953  1
    RHS1      constraint2_4200  1
    RHS1      constraint2_4201  1
    RHS1      constraint2_4202  1
    RHS1      constraint2_4203  1
    RHS1      constraint2_2000  1
    RHS1      constraint2_2001  1
    RHS1      constraint2_2002  1
    RHS1      constraint2_2003  1
    RHS1      constraint2_5070  1
    RHS1      constraint2_5071  1
    RHS1      constraint2_5072  1
    RHS1      constraint2_5073  1
BOUNDS
 UP BND1      Z_659_1_0  1
 UP BND1      Z_659_1_1  1
 UP BND1      Z_659_1_2  1
 UP BND1      Z_659_1_3  1
 UP BND1      Z_659_0_0  1
 UP BND1      Z_659_0_1  1
 UP BND1      Z_659_0_2  1
 UP BND1      Z_659_0_3  1
 UP BND1      Z_318_0_0  1
 UP BND1      Z_318_0_1  1
 UP BND1      Z_318_0_2  1
 UP BND1      Z_318_0_3  1
 UP BND1      Z_595_0_0  1
 UP BND1      Z_595_0_1  1
 UP BND1      Z_595_0_2  1
 UP BND1      Z_595_0_3  1
 UP BND1      Z_420_0_0  1
 UP BND1      Z_420_0_1  1
 UP BND1      Z_420_0_2  1
 UP BND1      Z_420_0_3  1
 UP BND1      Z_200_0_0  1
 UP BND1      Z_200_0_1  1
 UP BND1      Z_200_0_2  1
 UP BND1      Z_200_0_3  1
 UP BND1      Z_507_0_0  1
 UP BND1      Z_507_0_1  1
 UP BND1      Z_507_0_2  1
 UP BND1      Z_507_0_3  1
QUADOBJ
    Z_659_1_0  Z_595_0_0  -3.1249999999999993e-03
    Z_659_1_0  Z_420_0_0  -4.0227861297583155e-04
    Z_659_1_1  Z_595_0_1  -3.1249999999999993e-03
    Z_659_1_1  Z_420_0_1  -4.0227861297583155e-04
    Z_659_1_2  Z_595_0_2  -3.1249999999999993e-03
    Z_659_1_2  Z_420_0_2  -4.0227861297583155e-04
    Z_659_1_3  Z_595_0_3  -3.1249999999999993e-03
    Z_659_1_3  Z_420_0_3  -4.0227861297583155e-04
    Z_659_0_0  Z_420_0_0  -3.4566961171863857e-02
    Z_659_0_1  Z_420_0_1  -3.4566961171863857e-02
    Z_659_0_2  Z_420_0_2  -3.4566961171863857e-02
    Z_659_0_3  Z_420_0_3  -3.4566961171863857e-02
ENDATA
